p cnf 40 40
-35 -37 -11 0
-3 -4 1 0
-20 -21 28 0
-27 -1 -16 0
29 38 -10 0
-7 -19 27 0
-27 -35 20 0
-27 -3 -11 0
-21 28 8 0
-26 -24 21 0
19 1 36 0
-39 10 -19 0
28 -32 -7 0
-36 27 34 0
-15 -21 17 0
33 3 15 0
-27 13 4 0
12 31 4 0
40 19 -2 0
-3 38 12 0
6 35 2 0
35 -2 -24 0
11 6 14 0
6 18 29 0
-1 31 -8 0
9 2 -23 0
11 3 31 0
-25 -32 8 0
-6 -30 -3 0
-28 37 -10 0
-30 9 -5 0
14 -27 -24 0
-27 18 26 0
-39 -3 -32 0
-22 29 -1 0
-5 -19 -33 0
-32 -28 -10 0
32 -5 4 0
-39 -28 5 0
13 -3 -23 0
